c generated by sgen
p cnf 69 148
-2 -3 -4 0
-1 -3 -4 0
-1 -2 -4 0
-1 -2 -3 0
-6 -7 -8 0
-5 -7 -8 0
-5 -6 -8 0
-5 -6 -7 0
-10 -11 -12 0
-9 -11 -12 0
-9 -10 -12 0
-9 -10 -11 0
-14 -15 -16 0
-13 -15 -16 0
-13 -14 -16 0
-13 -14 -15 0
-18 -19 -20 0
-17 -19 -20 0
-17 -18 -20 0
-17 -18 -19 0
-22 -23 -24 0
-21 -23 -24 0
-21 -22 -24 0
-21 -22 -23 0
-26 -27 -28 0
-25 -27 -28 0
-25 -26 -28 0
-25 -26 -27 0
-30 -31 -32 0
-29 -31 -32 0
-29 -30 -32 0
-29 -30 -31 0
-34 -35 -36 0
-33 -35 -36 0
-33 -34 -36 0
-33 -34 -35 0
-38 -39 -40 0
-37 -39 -40 0
-37 -38 -40 0
-37 -38 -39 0
-42 -43 -44 0
-41 -43 -44 0
-41 -42 -44 0
-41 -42 -43 0
-46 -47 -48 0
-45 -47 -48 0
-45 -46 -48 0
-45 -46 -47 0
-50 -51 -52 0
-49 -51 -52 0
-49 -50 -52 0
-49 -50 -51 0
-54 -55 -56 0
-53 -55 -56 0
-53 -54 -56 0
-53 -54 -55 0
-58 -59 -60 0
-57 -59 -60 0
-57 -58 -60 0
-57 -58 -59 0
-62 -63 -64 0
-61 -63 -64 0
-61 -62 -64 0
-61 -62 -63 0
-65 -66 -67 0
-65 -66 -68 0
-65 -66 -69 0
-65 -67 -68 0
-65 -67 -69 0
-65 -68 -69 0
-66 -67 -68 0
-66 -67 -69 0
-66 -68 -69 0
-67 -68 -69 0
65 25 57 0
53 25 57 0
53 65 57 0
53 65 25 0
40 41 36 0
55 41 36 0
55 40 36 0
55 40 41 0
7 4 67 0
51 4 67 0
51 7 67 0
51 7 4 0
26 11 13 0
43 11 13 0
43 26 13 0
43 26 11 0
63 19 16 0
37 19 16 0
37 63 16 0
37 63 19 0
33 10 47 0
68 10 47 0
68 33 47 0
68 33 10 0
52 60 34 0
18 60 34 0
18 52 34 0
18 52 60 0
17 54 12 0
5 54 12 0
5 17 12 0
5 17 54 0
1 35 14 0
28 35 14 0
28 1 14 0
28 1 35 0
20 22 66 0
29 22 66 0
29 20 66 0
29 20 22 0
64 69 2 0
44 69 2 0
44 64 2 0
44 64 69 0
42 6 30 0
59 6 30 0
59 42 30 0
59 42 6 0
31 38 3 0
9 38 3 0
9 31 3 0
9 31 38 0
27 62 23 0
50 62 23 0
50 27 23 0
50 27 62 0
8 24 45 0
39 24 45 0
39 8 45 0
39 8 24 0
15 32 48 0
49 32 48 0
49 15 48 0
49 15 32 0
56 46 58 0
56 46 61 0
56 46 21 0
56 58 61 0
56 58 21 0
56 61 21 0
46 58 61 0
46 58 21 0
46 61 21 0
58 61 21 0
